NAME : n80w60.004.718.tour
COMMENT : Length = 718
COMMENT : Found by LKH [Keld Helsgaun] Tue Nov  7 19:36:28 2017
TYPE : TOUR
DIMENSION : 81
TOUR_SECTION
1
32
8
33
43
59
39
6
23
11
36
74
60
31
17
78
38
80
57
73
16
46
27
18
35
30
64
63
25
14
2
66
76
50
71
55
5
70
26
28
79
4
20
75
61
77
45
62
67
48
72
15
22
42
7
21
13
53
10
44
54
34
12
65
37
58
49
41
56
40
9
51
3
29
69
52
24
47
81
19
68
-1
EOF
